data;

set A := 166333 241576 830414 411276 100838 879422 698913 499878 409000 778459 275780 353550 892051 395334 866391 564101 500011 281546 907986 869360 74536 729204 150458 337684 536369 494610 272681 183767 349280 838389 976905 468805 496448 269807 519769 857032 830417 423702 488806 765166;
param T := 10000000;

end;
